<number of tasks>
100

<cycle time>
1000

<order strength>
0.596


<task times>
1 140
2 208
3 55
4 69
5 107
6 165
7 39
8 80
9 74
10 186
11 128
12 109
13 278
14 503
15 336
16 65
17 384
18 238
19 90
20 184
21 135
22 80
23 221
24 289
25 500
26 138
27 63
28 438
29 70
30 314
31 112
32 82
33 262
34 142
35 538
36 173
37 193
38 26
39 119
40 228
41 97
42 242
43 365
44 496
45 102
46 310
47 110
48 507
49 501
50 114
51 324
52 251
53 508
54 67
55 40
56 289
57 40
58 153
59 104
60 131
61 123
62 566
63 96
64 68
65 200
66 306
67 23
68 225
69 171
70 180
71 82
72 105
73 27
74 88
75 56
76 220
77 87
78 295
79 56
80 218
81 225
82 202
83 214
84 74
85 24
86 156
87 126
88 325
89 163
90 215
91 43
92 194
93 576
94 589
95 259
96 334
97 218
98 198
99 96
100 29

<precedence relations>
1,29
2,29
3,80
4,50
5,50
6,9
6,10
6,19
7,8
7,11
7,12
8,29
9,29
10,29
11,14
11,25
11,33
12,13
12,15
13,50
14,50
15,16
15,17
15,18
15,19
15,20
16,29
17,29
18,50
19,21
19,24
19,26
19,27
20,22
20,23
20,25
20,28
21,29
22,29
23,80
24,80
25,50
26,66
27,31
27,32
27,34
28,29
28,30
28,31
28,32
28,33
29,35
29,36
29,37
29,38
29,39
30,80
31,43
32,39
32,42
33,39
34,40
34,44
34,45
35,41
35,42
35,44
35,46
35,47
36,41
36,42
36,61
37,45
37,46
37,51
38,43
39,43
39,61
40,41
40,46
40,47
41,81
42,50
43,50
44,50
45,66
46,48
46,49
46,52
47,48
47,49
47,51
47,63
47,79
48,80
49,81
50,53
50,54
50,55
50,56
50,57
50,58
50,59
50,60
51,66
52,61
52,62
52,67
53,63
53,71
55,65
56,67
57,92
58,62
58,64
59,71
59,99
60,66
61,70
61,71
62,81
63,66
64,68
64,92
65,67
65,71
66,73
66,74
66,75
66,76
66,77
66,78
67,69
67,70
67,72
67,79
68,69
68,71
69,80
70,80
71,81
72,81
73,81
73,82
74,93
75,95
79,82
80,83
80,84
80,85
80,86
80,100
81,87
81,88
81,89
81,90
81,91
81,93
82,92
82,99
83,95
86,94
89,96
95,98
95,99
96,97
96,100

<end>
